11
2147483647 10 45 87 55 5 76 37 80 6 37 
10 2147483647 74 100 27 67 56 70 95 27 21 
45 74 2147483647 73 70 52 22 39 14 18 37 
87 100 73 2147483647 15 44 22 2 4 53 30 
55 27 70 15 2147483647 16 63 74 42 40 8 
5 67 52 44 16 2147483647 1 28 53 96 51 
76 56 22 22 63 1 2147483647 2 72 6 52 
37 70 39 2 74 28 2 2147483647 95 99 80 
80 95 14 4 42 53 72 95 2147483647 62 31 
6 27 18 53 40 96 6 99 62 2147483647 27 
37 21 37 30 8 51 52 80 31 27 2147483647 
